(declare-fun temp570_1 () (_ BitVec 64))
(declare-fun temp570_2 () (_ BitVec 64))
(declare-fun var82670 () (_ BitVec 64))
(declare-fun k!0 () Bool)
(declare-fun ARGNAME_input_NAMEEND_DIM () (_ BitVec 64))
(declare-fun temp570_3 () (_ BitVec 64))
(declare-fun ARGNAME_sections_NAMEEND () (_ BitVec 64))
(declare-fun var82695 () (_ BitVec 64))
(declare-fun temp570_4 () (_ BitVec 64))
(declare-fun temp570_5 () (_ BitVec 64))
(declare-fun var67369 () (_ BitVec 64))
(declare-fun temp570_6 () (_ BitVec 64))
(declare-fun temp570_7 () (_ BitVec 64))
(declare-fun ARGNAME_input_NAMEEND_DIMSIZE
             ()
             (Array (_ BitVec 64) (_ BitVec 64)))
(declare-fun temp570_8 () (_ BitVec 64))
(declare-fun temp570_9 () (_ BitVec 64))
(declare-fun temp570_10 () (_ BitVec 64))
(declare-fun temp570_11 () (_ BitVec 64))
(declare-fun temp570_12 () (_ BitVec 64))
(declare-fun temp570_13 () (_ BitVec 64))
(declare-fun temp570_14 () (_ BitVec 64))
(declare-fun temp570_15 () (_ BitVec 64))
(declare-fun temp570_16 () (_ BitVec 64))
(declare-fun temp570_17 () (_ BitVec 64))
(declare-fun temp570_18 () (_ BitVec 64))
(declare-fun temp570_19 () (_ BitVec 64))
(declare-fun temp570_20 () (_ BitVec 64))
(declare-fun temp570_21 () (_ BitVec 64))
(declare-fun temp570_22 () (_ BitVec 64))
(declare-fun temp570_23 () (_ BitVec 64))
(declare-fun temp570_25 () (_ BitVec 64))
(declare-fun temp570_26 () (_ BitVec 64))
(declare-fun temp570_24 () (_ BitVec 64))
(declare-fun var82709 () (_ BitVec 64))
(declare-fun temp570_27 () (_ BitVec 64))
(declare-fun var82710 () (_ BitVec 64))
(declare-fun temp570_28 () (_ BitVec 64))
(declare-fun var140605 () (_ BitVec 64))
(declare-fun temp570_29 () (_ BitVec 64))
(declare-fun var140635 () (_ BitVec 64))
(declare-fun temp570_30 () (_ BitVec 64))
(declare-fun temp570_31 () (_ BitVec 64))
(declare-fun var140664 () (_ BitVec 64))
(declare-fun temp570_32 () (_ BitVec 64))
(declare-fun temp570_34 () (_ BitVec 64))
(declare-fun temp570_33 () (_ BitVec 64))
(declare-fun temp570_36 () (_ BitVec 64))
(declare-fun temp570_35 () (_ BitVec 64))
(declare-fun var462146 () (_ BitVec 64))
(declare-fun temp570_37 () (_ BitVec 64))
(declare-fun temp570_38 () (_ BitVec 64))
(declare-fun var527687 () (_ BitVec 64))
(declare-fun var593234 () (_ BitVec 64))
(declare-fun temp570_39 () (_ BitVec 64))
(declare-fun var1130139 () (_ BitVec 64))
(declare-fun temp570_40 () (_ BitVec 64))
(declare-fun var1130188 () (_ BitVec 64))
(declare-fun temp570_41 () (_ BitVec 64))
(declare-fun temp570_42 () (_ BitVec 64))
(declare-fun var1380938 () (_ BitVec 64))
(declare-fun temp570_43 () (_ BitVec 64))
(declare-fun var2101834 () (_ BitVec 64))
(declare-fun temp570_44 () (_ BitVec 64))
(declare-fun var1130305 () (_ BitVec 64))
(declare-fun temp570_45 () (_ BitVec 64))
(declare-fun temp570_46 () (_ BitVec 64))
(declare-fun var3357340 () (_ BitVec 64))
(declare-fun var3357344 () (_ BitVec 64))
(declare-fun var3357505 () (_ BitVec 64))
(declare-fun temp570_48 () (_ BitVec 64))
(declare-fun temp570_47 () (_ BitVec 64))
(assert (= temp570_1 #x0000000000000003))
(assert (= var82670
   (ite (bvslt ARGNAME_input_NAMEEND_DIM temp570_1)
        #x0000000000000001
        #x0000000000000000)))
(assert (= temp570_2 #x0000000000000000))
(assert (= var82670 temp570_2))
(assert (= temp570_3 #x0000000000000000))
(assert (= var82695
   (ite (= ARGNAME_sections_NAMEEND temp570_3)
        #x0000000000000001
        #x0000000000000000)))
(assert (= temp570_4 #x0000000000000000))
(assert (= var82695 temp570_4))
(assert (= temp570_5 #x0000000000000002))
(assert (= var67369 temp570_5))
(assert (= temp570_6 #x0000000000000000))
(assert (= temp570_7 temp570_6))
(assert (= temp570_8 (select ARGNAME_input_NAMEEND_DIMSIZE temp570_7)))
(assert (= temp570_9 #x0000000000000001))
(assert (= temp570_10 temp570_9))
(assert (= temp570_11 (select ARGNAME_input_NAMEEND_DIMSIZE temp570_10)))
(assert (= temp570_12 #x0000000000000002))
(assert (= temp570_13 temp570_12))
(assert (= temp570_14 (select ARGNAME_input_NAMEEND_DIMSIZE temp570_13)))
(assert (= temp570_15 #x0000000000000003))
(assert (= temp570_16 temp570_15))
(assert (= temp570_17 (select ARGNAME_input_NAMEEND_DIMSIZE temp570_16)))
(assert (= temp570_18 #x0000000000000004))
(assert (= temp570_19 temp570_18))
(assert (= temp570_20 (select ARGNAME_input_NAMEEND_DIMSIZE temp570_19)))
(assert (= temp570_21 #x0000000000000005))
(assert (= temp570_22 temp570_21))
(assert (= temp570_23 (select ARGNAME_input_NAMEEND_DIMSIZE temp570_22)))
(assert (= temp570_25 var67369))
(assert (= temp570_26 (select ARGNAME_input_NAMEEND_DIMSIZE temp570_25)))
(assert (= temp570_24 temp570_26))
(assert (= var82709 (bvsmod temp570_24 ARGNAME_sections_NAMEEND)))
(assert (= temp570_27 #x0000000000000000))
(assert (= var82710 (ite (= var82709 temp570_27) #x0000000000000001 #x0000000000000000)))
(assert (= temp570_28 #x0000000000000001))
(assert (= var82710 temp570_28))
(assert (= var140605 var67369))
(assert (= temp570_29 #x0000000000000001))
(assert (= var140635
   (ite (bvslt ARGNAME_input_NAMEEND_DIM temp570_29)
        #x0000000000000001
        #x0000000000000000)))
(assert (= temp570_30 #x0000000000000000))
(assert (= var140635 temp570_30))
(assert (= temp570_31 #x0000000000000001))
(assert (= var140664
   (ite (bvslt ARGNAME_sections_NAMEEND temp570_31)
        #x0000000000000001
        #x0000000000000000)))
(assert (= temp570_32 #x0000000000000000))
(assert (= var140664 temp570_32))
(assert (= temp570_34 #x0000000000000000))
(assert (= temp570_33 temp570_34))
(assert (= temp570_36 #x0000000000000000))
(assert (= temp570_35 temp570_36))
(assert (= var462146
   (ite (bvslt temp570_35 ARGNAME_sections_NAMEEND)
        #x0000000000000001
        #x0000000000000000)))
(assert (= temp570_37
   (ite (= var462146 #x0000000000000001) ARGNAME_sections_NAMEEND temp570_35)))
(assert (= temp570_38 #x0000000000000000))
(assert (= var527687 temp570_38))
(assert (= var593234 var527687))
(assert (= temp570_39 #x0000000000000001))
(assert (= var1130139 temp570_39))
(assert (= temp570_40 #x0000000000000000))
(assert (= var1130188
   (ite (= ARGNAME_input_NAMEEND_DIM temp570_40)
        #x0000000000000001
        #x0000000000000000)))
(assert (= temp570_41 #x0000000000000000))
(assert (= var1130188 temp570_41))
(assert (= temp570_42 #x0000000000000005))
(assert (= var1380938 temp570_42))
(assert (= temp570_43 #x0000000000000005))
(assert (= var2101834 temp570_43))
(assert (= temp570_44 #x0000000000000001))
(assert (= var1130305
   (ite (bvslt var1130139 temp570_44) #x0000000000000001 #x0000000000000000)))
(assert (= temp570_45 #x0000000000000000))
(assert (= var1130305 temp570_45))
(assert (= temp570_46 #x0000000000000000))
(assert (= var3357340 temp570_46))
(assert (= var3357344 var1130139))
(assert (= var3357505 var3357340))
(assert (= temp570_48 #x0000000000000000))
(assert (= temp570_47 temp570_48))
(model-add temp570_1 () (_ BitVec 64) #x0000000000000003)
(model-add temp570_2 () (_ BitVec 64) #x0000000000000000)
(model-add var82670 () (_ BitVec 64) #x0000000000000000)
(model-del k!0)
(model-add ARGNAME_input_NAMEEND_DIM
           ()
           (_ BitVec 64)
           (ite (or k!0 (= #x0000000000000003 #x8000000000000000))
                #x0000000000000003
                (bvsub #x0000000000000003 #x0000000000000001)))






